91
29
0 31 32 34 37 38 39 40 41 45 51 52 54 55 56 57 58 59 60 62 63 64 65 67 68 69 70 71 73 74 75 77 81 83 84 85 86
1 31 32 33 36 37 39 41 43 47 48 49 50 52 53 54 55 56 57 60 61 62 64 66 67 69 71 74 75 76 80 81 82 83 84 85 86 87
2 30 31 34 36 37 38 39 41 44 45 49 50 51 52 53 54 55 56 57 58 62 63 64 67 68 69 71 72 74 77 79 80 81 82 83 84 85 86 87 88 90
3 29 30 34 36 37 38 39 41 44 48 49 50 51 54 55 56 57 58 60 62 64 67 68 69 71 76 80 83 84 85 87 90
4 32 33 34 35 36 37 38 40 41 43 44 45 46 47 48 50 51 53 54 55 56 58 59 62 64 65 67 68 69 74 76 77 79 80 81 82 83 85 86 90
5 29 32 33 34 36 37 38 39 41 45 49 50 52 53 54 55 56 57 58 59 60 62 64 67 68 69 70 71 74 76 77 80 82 84 85 87 88 89 90
6 31 32 33 34 36 37 39 41 44 45 48 49 51 52 53 54 55 56 57 60 64 67 68 71 73 74 75 77 80 83 84 85 86 87 89
7 31 32 36 37 38 39 44 49 51 52 53 54 58 60 62 67 69 71 72 80 81 84 85 86 90
8 29 31 33 34 35 36 37 38 48 51 52 53 54 62 64 65 67 68 72 74 76 77 80 81 82 83 84 85 86 87 89
9 30 31 37 38 41 42 43 44 45 48 53 54 56 57 59 64 68 69 71 74 76 77 79 80 81 82 83 86 87 89
10 32 33 34 35 37 38 41 43 51 54 55 57 62 64 65 67 70 72 74 76 77 80 81 83 85 87 88 89 90
11 33 34 36 41 44 45 49 50 52 53 55 57 59 62 65 68 69 70 72 73 74 80 82 83 86 88 90
12 31 33 34 39 44 45 47 50 51 52 53 55 57 59 62 67 68 69 81 82 83 84 85 86 89
13 32 36 38 41 44 49 51 53 54 57 58 60 62 64 67 69 70 72 74 77 79 80 84 89 90
14 31 32 35 36 43 47 49 50 53 58 59 66 67 69 71 75 79 81 82 83 84 85 86 88 89
15 31 33 34 37 38 51 53 55 57 58 60 62 71 72 79 80 81 82 83 85 87 90
16 31 36 37 38 41 42 45 52 53 55 56 58 61 64 66 74 76 79 81 85 86 87 88 89
17 29 33 36 40 41 43 44 48 58 59 62 64 66 67 68 69 72 79 81 83 84 85 86
18 34 35 38 39 45 47 51 53 54 55 57 60 66 69 70 72 74 75 76 80 81
19 32 33 34 39 41 48 49 54 57 58 60 66 68 71 72 76 82 85
20 32 33 37 43 44 47 48 51 65 67 69 78 81 82
21 30 31 53 56 57 58 68 71 72 76 79 83 84
22 33 49 50 51 53 55 63 66 67 75 78 82 89
23 30 45 46 49 50 52 55 56 59 64 68 71 73 79 86 88
24 29 32 33 36 39 49 64 76 78 83 86 88 90
25 50 53 63 67 77 80 84
26 31 34 51 78
27 51 59 70
28
